8 9 8 6 6 6 -1 3 6 -1 
2 10 -1 -1 5 8 9 5 4 -1 
9 4 5 4 4 4 6 -1 8 -1 
3 1 2 8 4 7 9 -1 8 -1 
6 -1 -1 7 4 8 4 7 3 -1 
4 3 4 7 10 4 10 10 4 -1 
0 9 3 5 8 8 3 1 2 -1 
10 9 1 7 5 7 8 0 5 -1 
4 1 3 4 10 5 9 6 -1 -1 
7 -1 8 6 5 2 6 6 5 -1 
8 1 8 7 5 6 5 1 4 -1 
4 -1 1 6 -1 9 0 3 -1 -1 
6 3 9 7 5 5 4 3 -1 -1 
10 6 10 5 3 10 5 0 1 -1 
3 -1 5 -1 0 0 2 1 2 -1 
